134
1000
19
237
80
23
463
165
495
207
416
53
128
405
11
141
43
259
498
1
324
414
156
306
487
74
191
368
237
193
227
160
55
255
216
217
451
464
185
359
14
437
154
431
19
379
96
71
295
29
1
346
26
255
176
155
476
279
287
474
53
109
153
87
276
357
334
110
130
451
171
440
145
49
19
475
1
12
456
319
340
297
379
255
401
240
262
288
285
139
190
88
320
60
297
83
161
224
84
17
400
267
366
431
51
438
95
383
234
129
112
242
183
406
10
144
6
114
63
113
414
105
431
7
185
118
145
399
213
148
254
275
50
327
388
414
